    units        real                 # angstroms, kCal/mole, Daltons, Kelvin
    atom_style   full                 # select column format for Atoms section
    pair_style   lj/charmm/coul/long 9.0 10.0 10  # params needed: epsilon sigma
    bond_style   harmonic
    angle_style  harmonic
    kspace_style pppm 0.0001
    pair_modify  mix arithmetic
