

# ----------------- Init Section -----------------

include "system.in.init"


# ----------------- Atom Definition Section -----------------

read_data "cleanedsystem.data"


# ----------------- Settings Section -----------------

include "cleanedsystem.in.settings"


# ----------------- Run Section -----------------

neighbor	2.5 bin
neigh_modify	every 1 delay 0 check yes
neigh_modify    one 5000
timestep        2.0

# Initial minimization and equilibration
thermo_style custom step temp press pe ke etotal epair ebond eangle edihed eimp vol
thermo 1

minimize 	1e-8 1e-8 1000 1000
# velocity all create 300.0 123456 dist gaussian

write_data 	min.data

# fix 1 all nve
# fix 3 all temp/rescale 1 300.0 300.0 10.0 1.0
# run           2500000
# run 		5000
# unfix 3

# write_data	nvt.data

# fix 3 all npt temp 300 300 100 iso 1 1 100
# run           2500000
# unfix 3

# write_data	npt.data
