

# ----------------- Init Section -----------------

include "system.in.init"


# ----------------- Atom Definition Section -----------------

read_data "cleanedsystem.data" extra/bond/per/atom 1 extra/angle/per/atom 12 extra/dihedral/per/atom 12 extra/improper/per/atom 12 extra/special/per/atom 12


# ----------------- Settings Section -----------------

include "cleanedsystem.in.settings"


# ----------------- Run Section -----------------

neighbor	2.5 bin
neigh_modify	every 1 delay 0 check yes
timestep    1.0

# Initial minimization and equilibration
dump		init all xtc 500 pre_react.xtc
thermo_style custom step temp press pe ke etotal epair ebond eangle edihed eimp vol
thermo 500

minimize 	0 0 1000 10000
velocity all create 300.0 123456 dist gaussian

fix 3 all nvt temp 300.0 300.0 100.0
run           10000
unfix 3

fix 3 all npt temp 300 300 100 iso 1000 1000 100
run           10000
unfix 3

write_data	pre_react.data

# Polymerization
dump 		polym all xtc 500 react.xtc

molecule 	pre pre_molecule.data
molecule	post post_molecule.data

fix		fxrct all bond/react stabilization no &
		 react rxn1 all 100 0.0 5.0 pre post automap.data

fix 		2 bond_react_MASTER_group temp/rescale 1 300.0 300.0 1 1

thermo_style custom step f_fxrct[1]
thermo          500
run		      20000

write_data	post_react.data

unfix 2
unfix fxrct

# Post reaction minimization and equilibration
dump 		traj all xtc 500 post_react.xtc
thermo_style custom step temp press pe ke etotal epair ebond eangle edihed eimp vol
thermo 500

thermo_style one
minimize 	0 0 10000 100000

fix 3 all nvt temp 300.0 300.0 100.0
run           10000
unfix 3

fix 3 all npt temp 300 300 100 iso 1000 1000 100
run           10000
unfix 3

write_data	output.data